instances/shortest_path/discrete_knapsack_uncertainty/nohadani_6_6.kp
52689
96

[1.0981692149141304 3.6490667643781345 2.756299716863537 1.0408551832898487 2.2143430533229895 1.4520906807125553 2.8404113576080667 1.666572695772515 0.8748717602755196 2.277341128462633 3.4824993472449344 3.5537313078976007 1.3015950531334521 2.8555831912871312 3.50128170454244 3.5548709323783854 0.5384587145598521 1.9115897318714237 0.3160759547436536 2.55870970279634 0.9103563607957081 3.9077954429278194 0.8059852218557446 1.7081361570154896]

[9 26 44 77 14 7 87 13 3 8 65 33 58 58 38 14 63 94 87 84 59 21 74 20]
